sdsdd 
1.0
3.733999967600      0.000000000000      0.000000000000
-1.866999983800      3.233738829700      0.000000000000
0.000000000000      0.000000000000     15.054030418400
Sc C O H
2 3 2 2
 CARTESIAN
       -0.000001892  2.155826914  5.823428451   	Sc
        1.867001820   1.077911819  9.230600622          Sc
        0.000000000   0.000000000  7.527015209          C 
        -0.000001892  2.155826914  11.411234708         C 
        1.867001820   1.077911819  3.642794365          C 
        -1.09209573,   1.57792125,  12.13113476         O 
        2.95909566    1.655817479  2.922894315          O 
         0.81997389   2.58973489  11.94439846           H 
        1.04702604    0.644003839  3.109630615          H 
